c File: flat30_3_0.col
c
c SOURCE: Joseph Culberson (joe@cs.ualberta.ca)
c DESCRIPTION: Quasi-random coloring problem
c              generated with flatness = 0
c                             probability = 0.200
c                             known coloring = 3
c                             random seed = 231041
c              Creation Date:  Fri Nov 29 22:01:51 1996
c Maximum degree = 6 Minimum degree = 1
c
c cnf created by edge2cnf
p cnf 90 300
-1 -2 0
-1 -3 0
-2 -3 0
1 2 3 0
-4 -5 0
-4 -6 0
-5 -6 0
4 5 6 0
-7 -8 0
-7 -9 0
-8 -9 0
7 8 9 0
-10 -11 0
-10 -12 0
-11 -12 0
10 11 12 0
-13 -14 0
-13 -15 0
-14 -15 0
13 14 15 0
-16 -17 0
-16 -18 0
-17 -18 0
16 17 18 0
-19 -20 0
-19 -21 0
-20 -21 0
19 20 21 0
-22 -23 0
-22 -24 0
-23 -24 0
22 23 24 0
-25 -26 0
-25 -27 0
-26 -27 0
25 26 27 0
-28 -29 0
-28 -30 0
-29 -30 0
28 29 30 0
-31 -32 0
-31 -33 0
-32 -33 0
31 32 33 0
-34 -35 0
-34 -36 0
-35 -36 0
34 35 36 0
-37 -38 0
-37 -39 0
-38 -39 0
37 38 39 0
-40 -41 0
-40 -42 0
-41 -42 0
40 41 42 0
-43 -44 0
-43 -45 0
-44 -45 0
43 44 45 0
-46 -47 0
-46 -48 0
-47 -48 0
46 47 48 0
-49 -50 0
-49 -51 0
-50 -51 0
49 50 51 0
-52 -53 0
-52 -54 0
-53 -54 0
52 53 54 0
-55 -56 0
-55 -57 0
-56 -57 0
55 56 57 0
-58 -59 0
-58 -60 0
-59 -60 0
58 59 60 0
-61 -62 0
-61 -63 0
-62 -63 0
61 62 63 0
-64 -65 0
-64 -66 0
-65 -66 0
64 65 66 0
-67 -68 0
-67 -69 0
-68 -69 0
67 68 69 0
-70 -71 0
-70 -72 0
-71 -72 0
70 71 72 0
-73 -74 0
-73 -75 0
-74 -75 0
73 74 75 0
-76 -77 0
-76 -78 0
-77 -78 0
76 77 78 0
-79 -80 0
-79 -81 0
-80 -81 0
79 80 81 0
-82 -83 0
-82 -84 0
-83 -84 0
82 83 84 0
-85 -86 0
-85 -87 0
-86 -87 0
85 86 87 0
-88 -89 0
-88 -90 0
-89 -90 0
88 89 90 0
-46 -1 0
-47 -2 0
-48 -3 0
-88 -1 0
-89 -2 0
-90 -3 0
-37 -4 0
-38 -5 0
-39 -6 0
-43 -4 0
-44 -5 0
-45 -6 0
-49 -4 0
-50 -5 0
-51 -6 0
-70 -4 0
-71 -5 0
-72 -6 0
-85 -4 0
-86 -5 0
-87 -6 0
-88 -4 0
-89 -5 0
-90 -6 0
-31 -7 0
-32 -8 0
-33 -9 0
-34 -7 0
-35 -8 0
-36 -9 0
-76 -7 0
-77 -8 0
-78 -9 0
-79 -7 0
-80 -8 0
-81 -9 0
-88 -7 0
-89 -8 0
-90 -9 0
-43 -10 0
-44 -11 0
-45 -12 0
-46 -10 0
-47 -11 0
-48 -12 0
-55 -10 0
-56 -11 0
-57 -12 0
-67 -10 0
-68 -11 0
-69 -12 0
-70 -10 0
-71 -11 0
-72 -12 0
-34 -13 0
-35 -14 0
-36 -15 0
-55 -13 0
-56 -14 0
-57 -15 0
-64 -13 0
-65 -14 0
-66 -15 0
-31 -16 0
-32 -17 0
-33 -18 0
-49 -16 0
-50 -17 0
-51 -18 0
-52 -16 0
-53 -17 0
-54 -18 0
-76 -16 0
-77 -17 0
-78 -18 0
-85 -16 0
-86 -17 0
-87 -18 0
-43 -19 0
-44 -20 0
-45 -21 0
-49 -19 0
-50 -20 0
-51 -21 0
-64 -19 0
-65 -20 0
-66 -21 0
-76 -19 0
-77 -20 0
-78 -21 0
-82 -19 0
-83 -20 0
-84 -21 0
-31 -22 0
-32 -23 0
-33 -24 0
-46 -22 0
-47 -23 0
-48 -24 0
-64 -22 0
-65 -23 0
-66 -24 0
-67 -22 0
-68 -23 0
-69 -24 0
-82 -22 0
-83 -23 0
-84 -24 0
-37 -25 0
-38 -26 0
-39 -27 0
-40 -25 0
-41 -26 0
-42 -27 0
-61 -25 0
-62 -26 0
-63 -27 0
-82 -28 0
-83 -29 0
-84 -30 0
-70 -31 0
-71 -32 0
-72 -33 0
-82 -31 0
-83 -32 0
-84 -33 0
-82 -34 0
-83 -35 0
-84 -36 0
-79 -37 0
-80 -38 0
-81 -39 0
-61 -40 0
-62 -41 0
-63 -42 0
-67 -40 0
-68 -41 0
-69 -42 0
-79 -40 0
-80 -41 0
-81 -42 0
-70 -43 0
-71 -44 0
-72 -45 0
-73 -43 0
-74 -44 0
-75 -45 0
-82 -46 0
-83 -47 0
-84 -48 0
-88 -46 0
-89 -47 0
-90 -48 0
-67 -49 0
-68 -50 0
-69 -51 0
-79 -49 0
-80 -50 0
-81 -51 0
-88 -49 0
-89 -50 0
-90 -51 0
-73 -52 0
-74 -53 0
-75 -54 0
-70 -55 0
-71 -56 0
-72 -57 0
-76 -55 0
-77 -56 0
-78 -57 0
-64 -58 0
-65 -59 0
-66 -60 0
-73 -58 0
-74 -59 0
-75 -60 0
-88 -58 0
-89 -59 0
-90 -60 0
